NAME : sim141.120044.tour
COMMENT : Length = 120044
COMMENT : Found by LKH [Keld Helsgaun] Sun Sep 16 09:15:19 2018
TYPE : TOUR
DIMENSION : 141
TOUR_SECTION
1
58
25
15
90
31
129
121
47
130
27
52
74
122
76
59
19
10
84
68
48
126
51
56
100
22
102
61
66
65
2
82
62
96
120
101
85
3
138
78
127
88
75
139
54
97
112
107
93
43
69
45
8
119
99
77
98
6
136
106
36
105
14
137
12
125
113
60
86
11
20
80
124
67
108
50
24
38
40
7
16
26
34
91
133
64
42
63
44
55
132
18
128
9
83
23
81
140
87
79
123
116
17
49
37
57
72
53
89
95
33
5
134
70
92
73
131
4
117
28
111
103
13
21
115
41
109
46
30
114
118
39
110
94
104
71
29
141
35
32
135
-1
EOF
